
% =========================
% Điều 7 - Khoản 13
% License point deduction
% =========================

rule(d7_k13_a).
rule_type(d7_k13_a, license_point_deduction).
article(d7_k13_a, 7).
clause(d7_k13_a, 13).
point(d7_k13_a, "a").
reference_rule(d7_k13_a, d7_k3_b).
reference_rule(d7_k13_a, d7_k5).
reference_rule(d7_k13_a, d7_k6_b).
reference_rule(d7_k13_a, d7_k6_c).
reference_rule(d7_k13_a, d7_k6_d).
reference_rule(d7_k13_a, d7_k7_a).
license_points_deducted(d7_k13_a, 2).
original_vi_text(d7_k13_a, "Thực hiện hành vi quy định tại điểm b khoản 3; khoản 5; điểm b, điểm c, điểm d khoản 6; điểm a khoản 7 Điều này bị trừ điểm giấy phép lái xe 02 điểm.").

rule(d7_k13_b).
rule_type(d7_k13_b, license_point_deduction).
article(d7_k13_b, 7).
clause(d7_k13_b, 13).
point(d7_k13_b, "b").
reference_rule(d7_k13_b, d7_k4_dd).
reference_rule(d7_k13_b, d7_k6_a).
reference_rule(d7_k13_b, d7_k7_c).
reference_rule(d7_k13_b, d7_k7_d).
reference_rule(d7_k13_b, d7_k7_dd).
reference_rule(d7_k13_b, d7_k8_a).
license_points_deducted(d7_k13_b, 4).
original_vi_text(d7_k13_b, "Thực hiện hành vi quy định tại điểm đ khoản 4; điểm a khoản 6; điểm c, điểm d, điểm đ khoản 7; điểm a khoản 8 Điều này bị trừ điểm giấy phép lái xe 04 điểm.").

rule(d7_k13_c).
rule_type(d7_k13_c, license_point_deduction).
article(d7_k13_c, 7).
clause(d7_k13_c, 13).
point(d7_k13_c, "c").
reference_rule(d7_k13_c, d7_k7_b).
reference_rule(d7_k13_c, d7_k9_c).
license_points_deducted(d7_k13_c, 6).
original_vi_text(d7_k13_c, "Thực hiện hành vi quy định tại điểm b khoản 7, điểm c khoản 9 Điều này bị trừ điểm giấy phép lái xe 06 điểm.").

rule(d7_k13_d).
rule_type(d7_k13_d, license_point_deduction).
article(d7_k13_d, 7).
clause(d7_k13_d, 13).
point(d7_k13_d, "d").
reference_rule(d7_k13_d, d7_k8_b).
reference_rule(d7_k13_d, d7_k10).
license_points_deducted(d7_k13_d, 10).
original_vi_text(d7_k13_d, "Thực hiện hành vi quy định tại điểm b khoản 8, khoản 10 Điều này bị trừ điểm giấy phép lái xe 10 điểm.").